9044.0
1 1 1 1 1 1 1 1 1 1 1 1 1 1 1 1 1 1 1 1 
0 1 2 3 5 60 
4 6 7 8 
9 11 12 
10 13 14 
15 16 17 
18 19 20 21 22 23 
24 25 26 27 28 
29 30 
31 32 33 34 35 36 37 
38 39 40 41 
42 43 45 47 
44 46 
48 50 53 57 59 
49 51 52 54 
55 58 62 63 
56 61 64 
65 66 
67 68 69 70 71 72 
73 74 76 
75 77 78 79 
